AES/1_3_4/ssaes_r1-20_c3_rw1_e4_f0_k1-20_aes_canon_box_aes_mc_bidirectional/ExperimentMinisat_r8_k17cnf_2011-10-29-152213/Result
WARNING: for repeatability, setting FPU to use double precision
============================[ Problem Statistics ]=============================
|                                                                             |
|  Number of variables:           996                                         |
|  Number of clauses:            5840                                         |
|  Parse time:                   0.00 s                                       |
|  Eliminated clauses:           0.01 Mb                                      |
|  Simplification time:          0.01 s                                       |
|                                                                             |
=============================[ Search Statistics ]==============================
| Conflicts  |          ORIGINAL         |          LEARNT          | Progress |
|            |    Vars  Clauses Literals |    Limit  Clauses Lit/Cl |          |
================================================================================
|        100 |     800     5320    16512 |     1950      100     16 |  5.624 % |
|        250 |     800     5320    16512 |     2145      250     20 |  5.623 % |
|        475 |     800     5320    16512 |     2360      475     21 |  5.623 % |
===============================================================================
restarts              : 5
conflicts             : 585            (15397 /sec)
decisions             : 714            (0.00 % random) (18792 /sec)
propagations          : 187062         (4923462 /sec)
conflict literals     : 12212          (49.45 % deleted)
Memory used           : 8.00 MB
CPU time              : 0.037994 s

SATISFIABLE
